Set parameter Username
Academic license - for non-commercial use only - expires 2024-02-22
Warning: Gurobi version mismatch between Python 9.5.0 and C library 9.5.2
Set parameter TimeLimit to value 3600
Set parameter MIPGap to value 1e-06
Set parameter Threads to value 1
Gurobi Optimizer version 9.5.2 build v9.5.2rc0 (linux64)
Thread count: 4 physical cores, 4 logical processors, using up to 1 threads
Optimize a model with 468 rows, 4290 columns and 20826 nonzeros
Model fingerprint: 0xab00d41c
Variable types: 4186 continuous, 104 integer (104 binary)
Coefficient statistics:
  Matrix range     [1e+00, 5e+03]
  Objective range  [3e+00, 1e+05]
  Bounds range     [1e+00, 1e+00]
  RHS range        [1e+00, 2e+02]
Found heuristic solution: objective 18390.200000
Presolve removed 103 rows and 1 columns
Presolve time: 0.03s
Presolved: 365 rows, 4289 columns, 18016 nonzeros
Variable types: 4186 continuous, 103 integer (103 binary)

Root relaxation: objective 1.462893e+04, 1136 iterations, 0.03 seconds (0.03 work units)

    Nodes    |    Current Node    |     Objective Bounds      |     Work
 Expl Unexpl |  Obj  Depth IntInf | Incumbent    BestBd   Gap | It/Node Time

     0     0 14628.9330    0   52 18390.2000 14628.9330  20.5%     -    0s
H    0     0                    18181.200000 14628.9330  19.5%     -    0s
     0     0 14890.6765    0   55 18181.2000 14890.6765  18.1%     -    0s
     0     0 15034.1011    0   58 18181.2000 15034.1011  17.3%     -    0s
     0     0 15040.5111    0   55 18181.2000 15040.5111  17.3%     -    0s
     0     0 15286.0655    0   55 18181.2000 15286.0655  15.9%     -    0s
     0     0 15300.4789    0   56 18181.2000 15300.4789  15.8%     -    0s
     0     0 15302.1762    0   56 18181.2000 15302.1762  15.8%     -    0s
     0     0 15302.4720    0   56 18181.2000 15302.4720  15.8%     -    0s
     0     0 15302.5110    0   56 18181.2000 15302.5110  15.8%     -    0s
     0     0 15414.3651    0   57 18181.2000 15414.3651  15.2%     -    0s
H    0     0                    17948.199975 15414.3651  14.1%     -    0s
     0     0 15422.8218    0   57 17948.2000 15422.8218  14.1%     -    0s
     0     0 15427.6215    0   55 17948.2000 15427.6215  14.0%     -    0s
     0     0 15428.3281    0   55 17948.2000 15428.3281  14.0%     -    0s
     0     0 15428.6518    0   55 17948.2000 15428.6518  14.0%     -    0s
     0     0 15541.5742    0   61 17948.2000 15541.5742  13.4%     -    0s
     0     0 15560.9016    0   55 17948.2000 15560.9016  13.3%     -    0s
     0     0 15562.9015    0   56 17948.2000 15562.9015  13.3%     -    0s
     0     0 15563.1606    0   57 17948.2000 15563.1606  13.3%     -    0s
     0     0 15600.9225    0   63 17948.2000 15600.9225  13.1%     -    0s
     0     0 15607.7450    0   64 17948.2000 15607.7450  13.0%     -    0s
     0     0 15609.0499    0   64 17948.2000 15609.0499  13.0%     -    0s
     0     0 15609.1517    0   65 17948.2000 15609.1517  13.0%     -    0s
     0     0 15626.3684    0   65 17948.2000 15626.3684  12.9%     -    0s
     0     0 15628.8039    0   64 17948.2000 15628.8039  12.9%     -    0s
     0     0 15629.2765    0   65 17948.2000 15629.2765  12.9%     -    0s
     0     0 15638.8250    0   66 17948.2000 15638.8250  12.9%     -    0s
     0     0 15640.4894    0   64 17948.2000 15640.4894  12.9%     -    0s
     0     0 15640.6512    0   65 17948.2000 15640.6512  12.9%     -    0s
     0     0 15643.6360    0   68 17948.2000 15643.6360  12.8%     -    0s
     0     0 15643.6360    0   68 17948.2000 15643.6360  12.8%     -    0s
H    0     0                    17261.200000 15652.6140  9.32%     -    1s
     0     2 15654.1022    0   68 17261.2000 15654.1022  9.31%     -    1s
H  105    92                    17258.200000 15707.6836  8.98%  29.6    1s
H  132   105                    17212.200000 15711.1984  8.72%  29.3    1s
H  262   205                    17206.200000 15717.7441  8.65%  21.2    1s
H  540   391                    17195.709842 16044.7727  6.69%  18.4    3s
H  548   377                    17169.709842 16436.4091  4.27%  18.1    3s
H  583   381                    17169.301641 16830.6579  1.97%  25.4    4s
   588   385 17076.9649   49   51 17169.3016 16830.6579  1.97%  27.6    5s
H  604   375                    17169.200000 16855.2372  1.83%  26.9    5s
*  659   376              71    17166.200000 16895.6331  1.58%  27.0    5s
*  749   374              68    17140.200000 16904.0217  1.38%  25.0    5s
*  805   367              69    17134.200000 16926.4875  1.21%  23.9    6s
H  971   353                    17110.200000 16942.0381  0.98%  21.6    6s
H 1393   308                    17107.200000 16980.3105  0.74%  18.7    6s
* 1896   275              64    17081.200000 17002.4283  0.46%  17.1    7s

Cutting planes:
  Gomory: 8
  Implied bound: 13
  Projected implied bound: 14
  MIR: 73
  Flow cover: 46
  Relax-and-lift: 2

Explored 2790 nodes (46699 simplex iterations) in 8.09 seconds (7.29 work units)
Thread count was 1 (of 4 available processors)

Solution count 10: 17081.2 17107.2 17110.2 ... 17258.2

Optimal solution found (tolerance 1.00e-06)
Best objective 1.708120000000e+04, best bound 1.708120000000e+04, gap 0.0000%
Obj: 17081.2
Set parameter Username
Academic license - for non-commercial use only - expires 2023-12-01
Set parameter TimeLimit to value 3600
Set parameter MIPGap to value 1e-06
Set parameter Threads to value 1
Gurobi Optimizer version 9.5.2 build v9.5.2rc0 (linux64)
Thread count: 4 physical cores, 8 logical processors, using up to 1 threads
Optimize a model with 468 rows, 4290 columns and 20826 nonzeros
Model fingerprint: 0x2310c028
Variable types: 4186 continuous, 104 integer (104 binary)
Coefficient statistics:
  Matrix range     [1e+00, 5e+03]
  Objective range  [3e+00, 1e+05]
  Bounds range     [1e+00, 1e+00]
  RHS range        [1e+00, 2e+02]
Found heuristic solution: objective 106590.20000
Presolve removed 103 rows and 1 columns
Presolve time: 0.04s
Presolved: 365 rows, 4289 columns, 18016 nonzeros
Variable types: 4186 continuous, 103 integer (103 binary)

Root relaxation: objective 2.575117e+04, 1354 iterations, 0.05 seconds (0.08 work units)

    Nodes    |    Current Node    |     Objective Bounds      |     Work
 Expl Unexpl |  Obj  Depth IntInf | Incumbent    BestBd   Gap | It/Node Time

     0     0 25751.1723    0   71 106590.200 25751.1723  75.8%     -    0s
H    0     0                    72799.476994 25751.1723  64.6%     -    0s
H    0     0                    72341.140442 25751.1723  64.4%     -    0s
     0     0 25915.1526    0   77 72341.1404 25915.1526  64.2%     -    0s
     0     0 25974.6520    0   76 72341.1404 25974.6520  64.1%     -    0s
     0     0 25975.5426    0   76 72341.1404 25975.5426  64.1%     -    0s
     0     0 25975.5426    0   76 72341.1404 25975.5426  64.1%     -    0s
     0     0 26118.0392    0   80 72341.1404 26118.0392  63.9%     -    0s
     0     0 26164.9362    0   78 72341.1404 26164.9362  63.8%     -    0s
     0     0 26175.6806    0   79 72341.1404 26175.6806  63.8%     -    0s
     0     0 26176.7337    0   79 72341.1404 26176.7337  63.8%     -    0s
     0     0 26177.2610    0   80 72341.1404 26177.2610  63.8%     -    0s
     0     0 26177.2656    0   80 72341.1404 26177.2656  63.8%     -    0s
     0     0 26353.0352    0   82 72341.1404 26353.0352  63.6%     -    0s
     0     0 26375.5436    0   81 72341.1404 26375.5436  63.5%     -    0s
     0     0 26375.9864    0   82 72341.1404 26375.9864  63.5%     -    0s
     0     0 26518.4539    0   84 72341.1404 26518.4539  63.3%     -    0s
     0     0 26573.7502    0   85 72341.1404 26573.7502  63.3%     -    0s
     0     0 26594.7473    0   83 72341.1404 26594.7473  63.2%     -    0s
     0     0 26597.2521    0   83 72341.1404 26597.2521  63.2%     -    0s
     0     0 26597.2664    0   82 72341.1404 26597.2664  63.2%     -    0s
     0     0 26791.7800    0   85 72341.1404 26791.7800  63.0%     -    0s
     0     0 26834.6536    0   84 72341.1404 26834.6536  62.9%     -    0s
     0     0 26840.4985    0   85 72341.1404 26840.4985  62.9%     -    0s
     0     0 26840.7667    0   85 72341.1404 26840.7667  62.9%     -    0s
     0     0 26993.4756    0   89 72341.1404 26993.4756  62.7%     -    0s
     0     0 27018.5080    0   89 72341.1404 27018.5080  62.7%     -    0s
     0     0 27020.3182    0   88 72341.1404 27020.3182  62.6%     -    0s
     0     0 27021.6103    0   87 72341.1404 27021.6103  62.6%     -    0s
     0     0 27023.0283    0   89 72341.1404 27023.0283  62.6%     -    0s
     0     0 27023.0508    0   89 72341.1404 27023.0508  62.6%     -    0s
     0     0 27171.8926    0   88 72341.1404 27171.8926  62.4%     -    0s
     0     0 27202.6494    0   87 72341.1404 27202.6494  62.4%     -    0s
     0     0 27207.0413    0   86 72341.1404 27207.0413  62.4%     -    0s
     0     0 27208.5704    0   86 72341.1404 27208.5704  62.4%     -    0s
     0     0 27210.6821    0   86 72341.1404 27210.6821  62.4%     -    0s
     0     0 27211.1665    0   86 72341.1404 27211.1665  62.4%     -    0s
     0     0 27371.9293    0   90 72341.1404 27371.9293  62.2%     -    0s
